objective value:                                 3876
x1793                                               1 	(obj:84)
x1981                                               1 	(obj:1162)
x7549                                               1 	(obj:1914)
x28515                                              1 	(obj:716)
